Problem
 small
Maximize
 obj:   x1 +  x2 +  x3 +  x4 +  x5 +  x6 +  x7 +  x8 +  x9 +  x10 +  x11 +  x12 +  x13 +  x14 +  x15 +  x16 +  x17 +  x18
Subject To
 c1:   x1 +  x7 -  x18 = 0
 c2:   x2 +  x8 -  x18 = 0
 c3:   x3 +  x9 -  x18 = 0
 c4:   x4 -  x10 +  x11 -  x12 +  x13 -  x14 +  x15 -  x18 = 0
 c5:   x5 - 2 x10 +  x11 - 2 x12 +  x13 - 2 x14 +  x15 +  x16 -  x18 = 0
 c6:   x6 - 2 x10 +  x11 - 2 x12 +  x13 - 2 x14 +  x15 +  x17 -  x18 = 0
 c7:  -  x7 +  x10 +  x12 -  x15 = 0
 c8:  -  x8 +  x10 -  x13 +  x14 = 0
 c9:  -  x9 -  x11 +  x12 +  x14 = 0
 c10:   x7 +  x8 +  x9 +  x10 +  x11 +  x12 +  x13 +  x14 +  x15 +  x16 +  x17 +  x18 = 1
 c11:  -  x7 <= 0
 c12:  -  x8 <= 0
 c13:  -  x9 <= 0
 c14:  -  x10 <= 0
 c15:  -  x11 <= 0
 c16:  -  x12 <= 0
 c17:  -  x13 <= 0
 c18:  -  x14 <= 0
 c19:  -  x15 <= 0
 c20:  -  x16 <= 0
 c21:  -  x17 <= 0
 c22:  -  x18 <= 0
Bounds
 x1 free
 x2 free
 x3 free
 x4 free
 x5 free
 x6 free
 x7 free
 x8 free
 x9 free
 x10 free
 x11 free
 x12 free
 x13 free
 x14 free
 x15 free
 x16 free
 x17 free
 x18 free
End
